param N := 6;
param M := 14;
param K := 2;
param x_max := 6;
param y_max := 14;
param a := 1.0;
param b := 1.0;
param T := 40;
param i_start := 1 6 2 6;
param j_start := 1 6 2 7;
param i_end := 1 3 2 4;
param j_end := 1 6 2 13;